100
1475
4
39
27
9
47
0 3
0 5
0 8
0 10
0 11
0 16
0 17
0 31
0 32
0 34
0 37
0 38
0 43
0 44
0 48
0 59
0 64
0 67
0 69
0 70
0 74
0 75
0 81
0 89
0 91
0 92
0 93
0 96
1 8
1 13
1 15
1 17
1 27
1 31
1 32
1 34
1 38
1 45
1 48
1 49
1 53
1 55
1 59
1 60
1 68
1 70
1 71
1 73
1 79
1 83
1 84
1 86
1 92
1 94
1 95
2 5
2 8
2 10
2 12
2 13
2 17
2 30
2 50
2 51
2 53
2 54
2 58
2 60
2 65
2 67
2 68
2 76
2 77
2 78
2 80
2 82
2 83
2 86
2 89
2 90
2 91
2 92
3 4
3 10
3 11
3 14
3 15
3 19
3 23
3 25
3 28
3 30
3 34
3 41
3 44
3 47
3 51
3 58
3 61
3 65
3 66
3 74
3 75
3 78
3 79
3 92
3 98
4 9
4 10
4 13
4 19
4 20
4 22
4 24
4 26
4 29
4 30
4 31
4 37
4 41
4 46
4 48
4 49
4 54
4 55
4 56
4 59
4 61
4 63
4 67
4 81
4 84
4 95
4 96
4 99
5 6
5 7
5 9
5 13
5 19
5 20
5 22
5 24
5 26
5 28
5 29
5 33
5 37
5 39
5 42
5 45
5 46
5 54
5 60
5 62
5 64
5 65
5 69
5 72
5 73
5 82
5 83
5 85
5 88
5 90
5 93
5 99
6 8
6 10
6 11
6 14
6 19
6 29
6 32
6 33
6 34
6 37
6 43
6 47
6 49
6 51
6 52
6 53
6 56
6 57
6 58
6 61
6 68
6 73
6 75
6 81
6 82
6 84
6 85
6 88
6 90
6 95
6 97
7 9
7 11
7 12
7 14
7 18
7 22
7 27
7 31
7 32
7 41
7 42
7 45
7 58
7 60
7 63
7 66
7 68
7 75
7 76
7 84
7 86
7 91
8 10
8 19
8 24
8 25
8 29
8 31
8 42
8 43
8 44
8 48
8 49
8 56
8 61
8 65
8 67
8 68
8 74
8 81
8 86
8 88
8 89
8 91
8 98
8 99
9 10
9 11
9 16
9 22
9 26
9 30
9 31
9 35
9 37
9 41
9 44
9 45
9 60
9 64
9 67
9 68
9 69
9 76
9 79
9 89
9 97
9 99
10 15
10 17
10 18
10 20
10 27
10 29
10 32
10 34
10 35
10 50
10 51
10 64
10 71
10 74
10 75
10 78
10 79
10 81
10 82
10 85
10 87
10 88
10 92
10 95
10 97
10 99
11 14
11 25
11 27
11 29
11 32
11 35
11 37
11 39
11 49
11 51
11 56
11 60
11 61
11 68
11 73
11 75
11 79
11 81
11 83
11 86
11 89
11 93
11 98
11 99
12 15
12 19
12 22
12 26
12 27
12 30
12 33
12 34
12 41
12 42
12 43
12 45
12 47
12 50
12 51
12 54
12 56
12 65
12 67
12 68
12 69
12 77
12 80
12 81
12 94
12 98
12 99
13 15
13 16
13 17
13 25
13 26
13 27
13 36
13 42
13 44
13 45
13 46
13 48
13 49
13 52
13 59
13 62
13 65
13 70
13 73
13 84
13 86
13 87
13 88
13 98
14 15
14 19
14 20
14 23
14 25
14 31
14 35
14 39
14 41
14 54
14 56
14 63
14 64
14 65
14 70
14 72
14 80
14 83
14 84
14 85
14 87
14 92
14 93
14 95
14 96
15 16
15 18
15 25
15 29
15 31
15 32
15 39
15 42
15 43
15 50
15 52
15 54
15 55
15 59
15 62
15 63
15 66
15 71
15 73
15 75
15 82
15 86
15 88
15 89
15 92
15 96
15 98
16 18
16 24
16 28
16 30
16 32
16 33
16 35
16 37
16 44
16 51
16 52
16 54
16 55
16 58
16 60
16 62
16 66
16 75
16 79
16 81
16 83
16 90
16 92
16 93
16 95
16 96
16 99
17 18
17 19
17 21
17 23
17 24
17 25
17 26
17 34
17 39
17 41
17 42
17 43
17 44
17 48
17 49
17 53
17 56
17 58
17 61
17 65
17 69
17 71
17 73
17 78
17 82
17 88
17 89
17 90
17 91
17 93
17 98
17 99
18 25
18 31
18 32
18 36
18 38
18 41
18 44
18 47
18 48
18 49
18 58
18 67
18 69
18 78
18 83
18 84
18 85
18 89
18 92
18 94
18 99
19 21
19 24
19 25
19 27
19 32
19 34
19 39
19 40
19 43
19 47
19 50
19 57
19 58
19 59
19 60
19 65
19 68
19 69
19 71
19 72
19 78
19 79
19 83
19 87
19 93
19 94
19 95
19 97
20 29
20 31
20 36
20 42
20 44
20 45
20 49
20 51
20 55
20 61
20 65
20 71
20 79
20 83
20 84
20 85
20 86
20 88
20 89
20 93
20 95
20 99
21 26
21 29
21 36
21 37
21 40
21 41
21 45
21 47
21 48
21 50
21 63
21 66
21 71
21 80
21 87
21 88
21 89
21 90
21 91
21 92
21 93
21 98
22 23
22 25
22 30
22 31
22 40
22 41
22 43
22 45
22 49
22 53
22 65
22 67
22 68
22 75
22 76
22 78
22 80
22 82
22 83
22 91
23 27
23 32
23 36
23 49
23 53
23 55
23 56
23 58
23 59
23 60
23 77
23 79
23 89
23 91
23 98
24 25
24 30
24 31
24 32
24 34
24 35
24 37
24 39
24 41
24 43
24 50
24 54
24 57
24 60
24 64
24 66
24 68
24 70
24 75
24 76
24 80
24 81
24 82
24 85
24 86
24 95
24 99
25 29
25 35
25 36
25 38
25 41
25 42
25 47
25 53
25 60
25 64
25 65
25 70
25 72
25 73
25 75
25 77
25 78
25 80
25 81
25 82
25 85
25 86
25 88
25 90
25 92
25 93
25 96
25 99
26 29
26 32
26 34
26 41
26 44
26 45
26 48
26 52
26 54
26 58
26 65
26 72
26 83
26 91
26 95
26 97
27 39
27 46
27 47
27 48
27 49
27 51
27 52
27 57
27 58
27 60
27 61
27 63
27 72
27 75
27 78
27 79
27 80
27 83
27 86
27 89
27 98
28 29
28 35
28 38
28 47
28 54
28 56
28 64
28 66
28 67
28 70
28 76
28 79
28 82
28 87
28 88
28 89
28 93
28 94
28 96
29 31
29 39
29 41
29 42
29 47
29 50
29 51
29 54
29 55
29 56
29 58
29 61
29 63
29 64
29 68
29 69
29 73
29 75
29 79
29 86
29 89
29 90
29 91
29 92
29 93
29 97
29 98
30 35
30 36
30 43
30 51
30 54
30 60
30 65
30 67
30 72
30 78
30 80
30 81
30 85
30 89
30 92
30 93
30 94
30 97
31 33
31 35
31 36
31 38
31 40
31 44
31 48
31 49
31 51
31 57
31 58
31 76
31 77
31 80
31 84
31 85
31 87
31 92
31 94
31 98
32 34
32 37
32 39
32 40
32 42
32 48
32 55
32 66
32 68
32 69
32 78
32 82
32 84
32 87
32 89
32 90
32 93
32 99
33 39
33 40
33 41
33 49
33 50
33 55
33 61
33 65
33 67
33 70
33 74
33 79
33 84
33 85
33 86
33 96
33 99
34 38
34 43
34 46
34 49
34 55
34 57
34 58
34 59
34 61
34 62
34 63
34 65
34 66
34 72
34 73
34 75
34 81
34 84
34 88
34 90
34 94
35 36
35 40
35 41
35 43
35 44
35 45
35 50
35 52
35 53
35 54
35 56
35 70
35 74
35 77
35 79
35 84
35 85
35 87
35 88
35 92
35 94
35 95
35 96
36 40
36 41
36 45
36 49
36 50
36 53
36 57
36 60
36 64
36 73
36 74
36 80
36 81
36 88
36 90
36 93
36 96
37 44
37 48
37 54
37 58
37 71
37 75
37 77
37 79
37 83
37 86
37 88
37 89
37 93
37 96
38 45
38 47
38 54
38 55
38 58
38 59
38 63
38 64
38 74
38 76
38 78
38 79
38 83
38 85
38 86
38 90
38 92
38 93
39 41
39 42
39 44
39 48
39 50
39 51
39 53
39 54
39 57
39 62
39 64
39 66
39 67
39 74
39 76
39 78
39 82
39 87
39 92
39 97
40 41
40 46
40 48
40 50
40 54
40 58
40 61
40 62
40 64
40 71
40 72
40 79
40 82
40 84
40 85
40 89
40 93
40 98
41 44
41 51
41 53
41 56
41 57
41 59
41 60
41 61
41 62
41 69
41 70
41 73
41 76
41 77
41 78
41 84
41 92
41 95
41 96
42 43
42 44
42 45
42 49
42 52
42 56
42 60
42 61
42 67
42 68
42 70
42 71
42 72
42 74
42 78
42 80
42 85
42 88
42 91
42 93
42 98
43 44
43 47
43 58
43 61
43 63
43 67
43 69
43 73
43 81
43 85
43 86
43 91
43 95
43 97
43 98
44 54
44 56
44 57
44 58
44 60
44 63
44 66
44 67
44 71
44 73
44 76
44 86
44 91
44 93
44 95
45 48
45 53
45 55
45 59
45 62
45 65
45 66
45 72
45 73
45 78
45 80
45 85
45 86
45 93
45 94
45 98
45 99
46 57
46 58
46 61
46 62
46 68
46 70
46 72
46 75
46 78
46 80
46 81
46 85
46 88
46 93
46 99
47 48
47 52
47 55
47 58
47 63
47 65
47 66
47 73
47 77
47 81
47 82
47 84
47 93
47 94
47 98
48 50
48 51
48 53
48 54
48 62
48 64
48 65
48 66
48 68
48 81
48 82
48 83
48 86
48 87
48 88
48 91
49 50
49 53
49 58
49 61
49 65
49 69
49 70
49 76
49 81
49 82
49 86
49 87
49 89
49 90
49 93
49 97
49 98
50 59
50 61
50 68
50 74
50 77
50 79
50 80
50 82
50 89
50 93
50 97
50 98
51 55
51 62
51 63
51 65
51 67
51 68
51 78
51 80
51 85
51 92
51 93
51 94
51 97
52 53
52 54
52 69
52 72
52 74
52 75
52 77
52 79
52 87
52 89
52 90
52 91
52 93
52 98
53 54
53 55
53 59
53 66
53 79
53 80
53 83
53 86
54 55
54 60
54 61
54 64
54 73
54 74
54 75
54 80
54 83
54 86
54 88
54 89
54 90
54 96
54 97
54 99
55 60
55 67
55 69
55 71
55 74
55 76
55 77
55 79
55 80
55 82
55 83
55 86
55 87
55 88
55 89
55 92
55 93
55 99
56 59
56 60
56 61
56 72
56 73
56 80
56 82
56 90
56 91
56 95
56 98
57 58
57 59
57 69
57 73
57 84
57 89
57 90
57 93
57 94
57 99
58 59
58 63
58 65
58 71
58 72
58 75
58 79
58 84
58 89
58 94
59 60
59 62
59 67
59 70
59 72
59 76
59 79
59 80
59 81
59 83
59 84
59 87
59 89
59 93
59 94
60 68
60 69
60 70
60 75
60 80
60 85
60 88
60 91
60 94
60 95
61 69
61 71
61 72
61 76
61 82
61 83
61 84
61 85
61 87
61 89
61 95
62 68
62 70
62 72
62 78
62 81
62 96
62 98
63 81
63 82
63 83
63 85
63 93
63 96
63 97
64 65
64 66
64 69
64 73
64 82
64 83
64 86
64 88
64 98
65 69
65 70
65 74
65 75
65 76
65 77
65 78
65 80
65 89
65 92
65 95
65 99
66 67
66 70
66 76
66 80
66 84
66 86
66 89
66 92
66 93
66 94
66 95
66 96
67 70
67 75
67 81
67 82
67 85
67 87
67 94
67 97
68 69
68 75
68 79
68 80
68 82
68 86
68 89
68 96
68 97
68 98
69 70
69 71
69 76
69 77
69 83
69 90
69 91
69 96
69 98
70 75
70 76
70 77
70 79
70 87
70 88
70 89
70 93
70 96
70 98
71 72
71 77
71 84
71 85
71 86
71 88
71 97
71 98
72 77
72 78
72 83
72 84
72 85
72 87
72 88
72 91
72 93
72 95
72 96
72 97
73 75
73 78
73 79
73 80
73 83
73 89
73 91
73 94
73 95
74 77
74 79
74 80
74 81
74 85
74 92
74 94
74 97
75 76
75 81
75 82
75 89
75 93
75 97
75 98
76 77
76 83
76 84
76 86
76 88
76 91
76 93
76 95
77 78
77 82
77 85
77 93
77 94
77 96
77 97
78 80
78 81
78 82
78 83
78 84
78 86
78 87
78 88
78 95
78 99
79 80
79 81
79 85
79 87
79 89
79 91
79 93
79 97
79 98
79 99
80 82
80 84
80 85
80 87
80 91
80 92
80 94
80 95
80 97
80 99
81 84
81 85
81 88
81 91
81 93
81 96
82 84
82 87
82 90
82 92
82 94
83 89
83 91
83 92
83 93
84 87
84 88
84 90
84 91
84 99
85 86
85 87
85 95
85 96
85 98
86 90
86 92
86 93
86 95
86 98
86 99
87 92
87 96
87 98
88 92
88 95
88 99
89 90
89 92
89 98
89 99
90 91
90 93
90 94
90 95
90 97
91 93
91 96
92 95
92 96
92 99
93 95
95 96
95 97
95 98
98 99
2 18 62 4 10 44 95 47 79 57 52 65 27 59 11 97 9 53 73 67 69 6 25 20 55
66 76 38 7 88 70 83 51 82 98 91 96 13 56 29 99 39 84 3 19 0 24 26 22 78
85 94 48 45 15 34 37 1 41 77 81 28 46 90 80 89 74 72 93 49 40 23 92 71 86
43 60 8 30 63 87 16 75 12 17 64 36 54 33 5 58 61 68 32 21 31 50 35 14 42
